param set_len = 20;
param target := 183616329;
set values := 1874633, 11817084, 9178158, 32524197, 159373, 30768588, 18028561, 32088154, 28055122, 12328948, 4586787, 2797954, 27522395, 17101185, 3136992, 13828142, 13210116, 21600543, 28108236, 33302139, ;
